
Gurobi 9.0.2 (win64) logging started Sun Dec 27 05:11:25 2020

Changed value of parameter logfile to result\SunCable-20201227T0415\scenario_2030_m20_cab4000.log
   Prev:   Default: 
Gurobi Optimizer version 9.0.2 build v9.0.2rc0 (win64)
Optimize a model with 1243974 rows, 762167 columns and 3491691 nonzeros
Model fingerprint: 0x5e746655
Coefficient statistics:
  Matrix range     [1e-07, 4e+05]
  Objective range  [1e+00, 1e+00]
  Bounds range     [0e+00, 0e+00]
  RHS range        [2e-05, 3e+08]
Warning: Model contains large matrix coefficient range
         Consider reformulating model or setting NumericFocus parameter
         to avoid numerical issues.

Concurrent LP optimizer: primal simplex, dual simplex, and barrier
Showing barrier log only...

Presolve removed 1068997 rows and 595935 columns
Presolve time: 2.75s
Presolved: 174977 rows, 280098 columns, 652320 nonzeros

Ordering time: 0.08s

Barrier statistics:
 Dense cols : 5
 AA' NZ     : 6.422e+05
 Factor NZ  : 3.150e+06 (roughly 200 MBytes of memory)
 Factor Ops : 7.040e+07 (less than 1 second per iteration)
 Threads    : 30

                  Objective                Residual
Iter       Primal          Dual         Primal    Dual     Compl     Time
   0  -2.53634087e+16 -1.07293556e+15  7.40e+06 2.54e+04  3.04e+12     3s
   1  -5.47924632e+15 -1.08612475e+15  1.59e+06 4.56e+06  8.56e+11     4s
   2  -1.76565861e+15 -1.02453932e+15  5.15e+05 8.53e+05  2.47e+11     4s
   3  -3.45550437e+14 -8.99229347e+14  1.02e+05 1.35e+05  4.94e+10     4s
   4  -7.78191207e+13 -5.53459109e+14  2.21e+04 3.71e+04  1.18e+10     4s
   5  -2.42149631e+13 -3.72903633e+14  7.04e+03 1.83e+04  4.52e+09     5s
   6  -7.23988684e+12 -2.70267117e+14  2.30e+03 9.76e+03  1.97e+09     5s
   7  -2.31105780e+12 -1.02654149e+14  8.57e+02 8.47e+02  4.49e+08     5s
   8   4.93907883e+11 -2.88140911e+13  2.10e+01 4.44e+01  5.77e+07     5s
   9   3.69918611e+11 -2.10686451e+12  6.41e+00 3.09e+00  4.79e+06     6s
  10   1.25867534e+11 -8.54066389e+11  1.27e+00 1.01e+00  1.80e+06     6s
  11   4.31603640e+10 -2.18954826e+11  2.88e-01 5.59e-09  4.72e+05     6s
  12   1.70422333e+10 -1.06262782e+11  7.49e-02 5.59e-09  2.19e+05     6s
  13   1.38147713e+10 -1.35760489e+10  3.59e-02 7.45e-09  4.91e+04     7s
  14   9.86812083e+09 -1.48229896e+09  1.29e-02 5.59e-09  2.03e+04     7s
  15   8.77468492e+09  2.29887602e+09  5.92e-03 5.59e-09  1.15e+04     7s
  16   8.24416424e+09  4.23803549e+09  2.73e-03 3.73e-09  7.10e+03     7s
  17   7.99064563e+09  5.15758231e+09  1.28e-03 3.73e-09  5.01e+03     8s
  18   7.88334813e+09  6.08785823e+09  6.61e-04 3.73e-09  3.17e+03     8s
  19   7.83799317e+09  6.48258621e+09  4.29e-04 2.79e-09  2.39e+03     8s
  20   7.82389315e+09  6.76827078e+09  3.61e-04 2.79e-09  1.86e+03     8s
  21   7.80576277e+09  6.89035588e+09  2.79e-04 2.79e-09  1.61e+03     9s
  22   7.79778082e+09  7.03966740e+09  2.47e-04 1.86e-09  1.34e+03     9s
  23   7.78518008e+09  7.10456359e+09  1.94e-04 2.79e-09  1.20e+03     9s
  24   7.76127118e+09  7.34457662e+09  1.01e-04 1.86e-09  7.34e+02     9s
  25   7.74908771e+09  7.43191407e+09  5.42e-05 1.86e-09  5.58e+02    10s
  26   7.74438717e+09  7.50939478e+09  3.95e-05 1.86e-09  4.14e+02    10s
  27   7.74172564e+09  7.54513483e+09  3.18e-05 1.86e-09  3.46e+02    10s
  28   7.73717013e+09  7.56498746e+09  1.92e-05 1.86e-09  3.03e+02    11s
  29   7.73344870e+09  7.57938233e+09  9.24e-06 1.86e-09  2.71e+02    11s
  30   7.73145985e+09  7.64784189e+09  4.22e-06 1.86e-09  1.47e+02    11s
  31   7.72988942e+09  7.68120799e+09  8.54e-07 1.86e-09  8.56e+01    12s
  32   7.72953246e+09  7.70233284e+09  5.62e-07 1.86e-09  4.78e+01    12s
  33   7.72928588e+09  7.70774843e+09  4.06e-07 1.86e-09  3.79e+01    12s
  34   7.72905148e+09  7.71954738e+09  2.58e-07 1.86e-09  1.67e+01    12s
  35   7.72888978e+09  7.72085631e+09  1.59e-07 1.86e-09  1.41e+01    13s
  36   7.72874199e+09  7.72493236e+09  1.22e-07 1.86e-09  6.70e+00    13s
  37   7.72871521e+09  7.72570735e+09  9.31e-08 1.86e-09  5.29e+00    13s
  38   7.72866736e+09  7.72818205e+09  1.66e-07 2.79e-09  8.53e-01    13s
  39   7.72864016e+09  7.72843940e+09  6.33e-07 1.86e-09  3.53e-01    13s
  40   7.72862937e+09  7.72861630e+09  4.68e-08 2.79e-09  2.30e-02    14s
  41   7.72862822e+09  7.72862820e+09  5.41e-08 2.79e-09  3.38e-05    14s
  42   7.72862822e+09  7.72862820e+09  2.70e-04 3.92e-09  2.91e-05    14s

Barrier solved model in 42 iterations and 14.14 seconds
Optimal objective 7.72862822e+09

Crossover log...

   21170 DPushes remaining with DInf 0.0000000e+00                14s
    1987 DPushes remaining with DInf 0.0000000e+00                15s
       0 DPushes remaining with DInf 0.0000000e+00                16s
Warning: Markowitz tolerance tightened to 0.5

   65343 PPushes remaining with PInf 1.4378481e-03                16s
    6554 PPushes remaining with PInf 1.8132427e-03                20s
       0 PPushes remaining with PInf 0.0000000e+00                21s

  Push phase complete: Pinf 0.0000000e+00, Dinf 3.9296094e+01     21s

Iteration    Objective       Primal Inf.    Dual Inf.      Time
   86330    7.7286282e+09   0.000000e+00   3.929609e+01     21s
   86335    7.7286282e+09   0.000000e+00   0.000000e+00     23s

Solved with barrier
Solved in 86335 iterations and 22.74 seconds
Optimal objective  7.728628222e+09
Warning: unscaled primal violation = 0.000875419 and residual = 0.000875419
